31
1 431 2476
2 1132 1769
3 1048 1694
4 264 1669
5 470 1019
6 1613 1830
7 540 1593
8 994 672
9 1806 1145
10 1683 1662
11 552 2466
12 1045 543
13 1670 1803
14 164 531
15 1981 1143
16 374 1000
17 1816 876
18 1368 2049
19 617 549
20 1984 2356
21 164 525
22 907 2171
23 1437 1321
24 1913 2395
25 1680 1368
26 1491 2323
27 342 2437
28 211 1597
29 308 719
30 1172 1812
31 205 1641
